17	4
23	27	25	32	
0	0	0	0	0	3	2	3	4	
8	1	3	1	10	3	14	17	17	
6	6	9	2	1	1	16	
6	4	7	9	7	3	5	6	8	
5	4	1	1	10	3	7	11	13	
225	7	10	9	3	1	17	
125	4	8	2	9	2	10	12	
175	8	4	9	5	2	9	17	
75	3	2	4	4	1	17	
25	7	6	1	7	1	15	
150	5	5	5	8	1	17	
150	5	6	8	9	3	14	17	17	
8	1	5	2	7	1	17	
2	4	4	6	1	1	17	
2	7	10	9	4	1	17	
2	7	8	10	9	3	17	17	17	
0	0	0	0	0	0	
